sat
(model
(define-fun |goto_symex::&92;guard#1| () Bool true)
(define-fun |goto_symex::&92;guard#2| () Bool false)
(define-fun |goto_symex::&92;guard#3| () Bool false)
(define-fun |goto_symex::&92;guard#4| () Bool false)
(define-fun |goto_symex::&92;guard#5| () Bool false)
(define-fun |goto_symex::&92;guard#6| () Bool false)
(define-fun |goto_symex::&92;guard#7| () Bool true)
(define-fun array_of.0 () (Array (_ BitVec 32) (_ BitVec 1)) ((as const (Array (_ BitVec 32) (_ BitVec 1))) #b0))
(define-fun |argc'#0| () (_ BitVec 32) #b00000001000000000000000000000000)
(define-fun |argv'#0| () (Array (_ BitVec 32) (_ BitVec 32)) ((as const (Array (_ BitVec 32) (_ BitVec 32))) #b00000000000000000000000000000000))
(define-fun |argv'| () (Array (_ BitVec 32) (_ BitVec 32)) ((as const (Array (_ BitVec 32) (_ BitVec 32))) #b00000000000000000000000000000000))
(define-fun |nondet_symex::nondet0| () (_ BitVec 32) #b00000000000000000000000000000001)
(define-fun |main::1::t1!0@1| () (_ BitVec 32) #b00000000000000000000000000000000)
(define-fun |n#3| () (_ BitVec 32) #b00000000000000000000000000000001)
(define-fun |main::1::t2!0@1| () (_ BitVec 32) #b00000000000000000000000000000000)
(define-fun |__CPROVER_next_thread_id#3| () (_ BitVec 32) #b00000000000000000000000000000001)
(define-fun |__CPROVER_next_thread_id#5| () (_ BitVec 32) #b00000000000000000000000000000010)
(define-fun |n#4| () (_ BitVec 32) #b00000000000000000000000000000001)
(define-fun |__CPROVER_next_thread_id#8| () (_ BitVec 32) #b00000000000000000000000000000000)
(define-fun |n#5| () (_ BitVec 32) #b11111111011011101010111101111111)
(define-fun |__CPROVER_next_thread_id#11| () (_ BitVec 32) #b00000000000000000000000000000000)
(define-fun |n#6| () (_ BitVec 32) #b10011010000101111111111111111110)
(define-fun |__CPROVER_next_thread_id#14| () (_ BitVec 32) #b00000000000000000000000000000000)
(define-fun |n#7| () (_ BitVec 32) #b11111111111111111111111111111110)
(define-fun |__CPROVER_next_thread_id#17| () (_ BitVec 32) #b00000000000000000000000000000000)
(define-fun |n#8| () (_ BitVec 32) #b10000111111111111111111111110110)
(define-fun |__CPROVER_next_thread_id#20| () (_ BitVec 32) #b00000000000000000000000000000000)
(define-fun |pthread_create::1::this_thread_id!1@0#0| () (_ BitVec 32) #b00000000000000000000000000000000)
(define-fun |x#4| () (_ BitVec 32) #b00000000000000000000000000000001)
(define-fun |n#10| () (_ BitVec 32) #b00000000000000000000000000000001)
(define-fun |__CPROVER_threads_exited#2| () (Array (_ BitVec 32) (_ BitVec 1)) ((as const (Array (_ BitVec 32) (_ BitVec 1))) #b0))
(define-fun |pthread_create::1::this_thread_id!2@0#0| () (_ BitVec 32) #b00000000000000000000000000000000)
(define-fun |x#5| () (_ BitVec 32) #b00000000000000000000000000000000)
(define-fun |__CPROVER_threads_exited#4| () (Array (_ BitVec 32) (_ BitVec 1)) ((as const (Array (_ BitVec 32) (_ BitVec 1))) #b0))
(define-fun |pthread_create::1::this_thread_id!3@0#0| () (_ BitVec 32) #b00000000000000000000000000000000)
(define-fun |x#7| () (_ BitVec 32) #b00000000000000000000000000000000)
(define-fun |__CPROVER_threads_exited#6| () (Array (_ BitVec 32) (_ BitVec 1)) ((as const (Array (_ BitVec 32) (_ BitVec 1))) #b0))
(define-fun |pthread_create::1::this_thread_id!4@0#0| () (_ BitVec 32) #b00000000000000000000000000000000)
(define-fun |x#9| () (_ BitVec 32) #b00000000000000000000000000000000)
(define-fun |__CPROVER_threads_exited#8| () (Array (_ BitVec 32) (_ BitVec 1)) ((as const (Array (_ BitVec 32) (_ BitVec 1))) #b0))
(define-fun |pthread_create::1::this_thread_id!5@0#0| () (_ BitVec 32) #b00000000000000000000000000000000)
(define-fun |x#11| () (_ BitVec 32) #b00000000000000000000000000000000)
(define-fun |__CPROVER_threads_exited#10| () (Array (_ BitVec 32) (_ BitVec 1)) ((as const (Array (_ BitVec 32) (_ BitVec 1))) #b0))
(define-fun |pthread_create::1::this_thread_id!6@0#0| () (_ BitVec 32) #b00000000000000000000000000000000)
(define-fun |x#13| () (_ BitVec 32) #b00000000000000000000000000000000)
(define-fun |__CPROVER_threads_exited#12| () (Array (_ BitVec 32) (_ BitVec 1)) ((as const (Array (_ BitVec 32) (_ BitVec 1))) #b0))
(define-fun |pthread_create::1::this_thread_id!7@0#0| () (_ BitVec 32) #b00000000000000000000000000000000)
(define-fun |x#15| () (_ BitVec 32) #b00000000000000000000000000000000)
(define-fun |__CPROVER_threads_exited#14| () (Array (_ BitVec 32) (_ BitVec 1)) ((as const (Array (_ BitVec 32) (_ BitVec 1))) #b0))
(define-fun |main::1::t1!0@1#1| () (_ BitVec 32) #b00000000000000000000000000000000)
(define-fun |main::1::t2!0@1#1| () (_ BitVec 32) #b00000000000000000000000000000000)
(define-fun |main::1::i!0@1#1| () (_ BitVec 32) #b00000000000000000000000000000000)
(define-fun |pthread_create::1::this_thread_id!0@1#1| () (_ BitVec 32) #b00000000000000000000000000000000)
(define-fun |pthread_create::1::this_thread_id!0@2#1| () (_ BitVec 32) #b00000000000000000000000000000000)
(define-fun |pthread_create::1::this_thread_id!0@3#1| () (_ BitVec 32) #b00000000000000000000000000000000)
(define-fun |pthread_create::1::this_thread_id!0@4#1| () (_ BitVec 32) #b00000000000000000000000000000000)
(define-fun |pthread_create::1::this_thread_id!0@5#1| () (_ BitVec 32) #b00000000000000000000000000000000)
(define-fun |pthread_create::1::this_thread_id!0@6#1| () (_ BitVec 32) #b00000000000000000000000000000000)
(define-fun |pthread_create::1::this_thread_id!0@7#1| () (_ BitVec 32) #b00000000000000000000000000000000)
(define-fun |thr2::1::t!2@1#1| () (_ BitVec 32) #b00000000000000000000000000000000)
(define-fun |thr2::1::t!3@1#1| () (_ BitVec 32) #b00000000000000000000000000000000)
(define-fun |thr2::1::t!4@1#1| () (_ BitVec 32) #b00000000000000000000000000000000)
(define-fun |thr2::1::t!5@1#1| () (_ BitVec 32) #b00000000000000000000000000000000)
(define-fun |thr2::1::t!6@1#1| () (_ BitVec 32) #b00000000000000000000000000000000)
(define-fun |thr2::1::t!7@1#1| () (_ BitVec 32) #b00000000000000000000000000000000)
(define-fun |symex::io::0| () (_ BitVec 32) #b00000001000000000000000000000000)
(define-fun |memory_model::choice_rf_1_4_0_8_T_0| () Bool false)
(define-fun |__CPROVER_threads_exited#1$wclk$8| () (_ BitVec 7) #b0001111)
(define-fun |__CPROVER_threads_exited#2$rclk$8| () (_ BitVec 7) #b1111110)
(define-fun |memory_model::choice_rf_1_4_2_3_T_1| () Bool false)
(define-fun |__CPROVER_threads_exited#5$wclk$8| () (_ BitVec 7) #b1111101)
(define-fun |memory_model::choice_rf_1_4_3_3_T_2| () Bool false)
(define-fun |__CPROVER_threads_exited#7$wclk$8| () (_ BitVec 7) #b1111100)
(define-fun |memory_model::choice_rf_1_4_4_3_T_3| () Bool false)
(define-fun |__CPROVER_threads_exited#9$wclk$8| () (_ BitVec 7) #b1111011)
(define-fun |memory_model::choice_rf_1_4_5_3_T_4| () Bool false)
(define-fun |__CPROVER_threads_exited#11$wclk$8| () (_ BitVec 7) #b1111010)
(define-fun |memory_model::choice_rf_1_4_6_3_T_5| () Bool false)
(define-fun |__CPROVER_threads_exited#13$wclk$8| () (_ BitVec 7) #b1111001)
(define-fun |memory_model::choice_rf_1_4_7_3_T_6| () Bool false)
(define-fun |__CPROVER_threads_exited#15$wclk$8| () (_ BitVec 7) #b1111000)
(define-fun |memory_model::choice_rf_2_2_0_8_T_7| () Bool true)
(define-fun |__CPROVER_threads_exited#4$rclk$8| () (_ BitVec 7) #b1110111)
(define-fun |memory_model::choice_rf_2_2_1_5_T_8| () Bool false)
(define-fun |__CPROVER_threads_exited#3$wclk$8| () (_ BitVec 7) #b1111111)
(define-fun |memory_model::choice_rf_2_2_3_3_T_9| () Bool false)
(define-fun |memory_model::choice_rf_2_2_4_3_T_10| () Bool false)
(define-fun |memory_model::choice_rf_2_2_5_3_T_11| () Bool false)
(define-fun |memory_model::choice_rf_2_2_6_3_T_12| () Bool false)
(define-fun |memory_model::choice_rf_2_2_7_3_T_13| () Bool false)
(define-fun |memory_model::choice_rf_3_2_0_8_T_14| () Bool false)
(define-fun |__CPROVER_threads_exited#6$rclk$8| () (_ BitVec 7) #b1110100)
(define-fun |memory_model::choice_rf_3_2_1_5_T_15| () Bool false)
(define-fun |memory_model::choice_rf_3_2_2_3_T_16| () Bool false)
(define-fun |memory_model::choice_rf_3_2_4_3_T_17| () Bool false)
(define-fun |memory_model::choice_rf_3_2_5_3_T_18| () Bool false)
(define-fun |memory_model::choice_rf_3_2_6_3_T_19| () Bool false)
(define-fun |memory_model::choice_rf_3_2_7_3_T_20| () Bool false)
(define-fun |memory_model::choice_rf_4_2_0_8_T_21| () Bool false)
(define-fun |__CPROVER_threads_exited#8$rclk$8| () (_ BitVec 7) #b1110100)
(define-fun |memory_model::choice_rf_4_2_1_5_T_22| () Bool false)
(define-fun |memory_model::choice_rf_4_2_2_3_T_23| () Bool false)
(define-fun |memory_model::choice_rf_4_2_3_3_T_24| () Bool false)
(define-fun |memory_model::choice_rf_4_2_5_3_T_25| () Bool false)
(define-fun |memory_model::choice_rf_4_2_6_3_T_26| () Bool false)
(define-fun |memory_model::choice_rf_4_2_7_3_T_27| () Bool false)
(define-fun |memory_model::choice_rf_5_2_0_8_T_28| () Bool false)
(define-fun |__CPROVER_threads_exited#10$rclk$8| () (_ BitVec 7) #b1110100)
(define-fun |memory_model::choice_rf_5_2_1_5_T_29| () Bool false)
(define-fun |memory_model::choice_rf_5_2_2_3_T_30| () Bool false)
(define-fun |memory_model::choice_rf_5_2_3_3_T_31| () Bool false)
(define-fun |memory_model::choice_rf_5_2_4_3_T_32| () Bool false)
(define-fun |memory_model::choice_rf_5_2_6_3_T_33| () Bool false)
(define-fun |memory_model::choice_rf_5_2_7_3_T_34| () Bool false)
(define-fun |memory_model::choice_rf_6_2_0_8_T_35| () Bool false)
(define-fun |__CPROVER_threads_exited#12$rclk$8| () (_ BitVec 7) #b1101101)
(define-fun |memory_model::choice_rf_6_2_1_5_T_36| () Bool false)
(define-fun |memory_model::choice_rf_6_2_2_3_T_37| () Bool false)
(define-fun |memory_model::choice_rf_6_2_3_3_T_38| () Bool false)
(define-fun |memory_model::choice_rf_6_2_4_3_T_39| () Bool false)
(define-fun |memory_model::choice_rf_6_2_5_3_T_40| () Bool false)
(define-fun |memory_model::choice_rf_6_2_7_3_T_41| () Bool false)
(define-fun |memory_model::choice_rf_7_2_0_8_T_42| () Bool false)
(define-fun |__CPROVER_threads_exited#14$rclk$8| () (_ BitVec 7) #b1101100)
(define-fun |memory_model::choice_rf_7_2_1_5_T_43| () Bool false)
(define-fun |memory_model::choice_rf_7_2_2_3_T_44| () Bool false)
(define-fun |memory_model::choice_rf_7_2_3_3_T_45| () Bool false)
(define-fun |memory_model::choice_rf_7_2_4_3_T_46| () Bool false)
(define-fun |memory_model::choice_rf_7_2_5_3_T_47| () Bool false)
(define-fun |memory_model::choice_rf_7_2_6_3_T_48| () Bool false)
(define-fun |memory_model::choice_rf_0_20_0_6_T_49| () Bool false)
(define-fun |memory_model::choice_rf_0_20_0_16_T_50| () Bool true)
(define-fun |memory_model::choice_rf_0_25_0_6_T_51| () Bool false)
(define-fun |memory_model::choice_rf_0_25_0_16_T_52| () Bool false)
(define-fun |memory_model::choice_rf_0_25_0_21_T_53| () Bool false)
(define-fun |memory_model::choice_rf_0_30_0_6_T_54| () Bool false)
(define-fun |memory_model::choice_rf_0_30_0_16_T_55| () Bool false)
(define-fun |memory_model::choice_rf_0_30_0_21_T_56| () Bool false)
(define-fun |memory_model::choice_rf_0_30_0_26_T_57| () Bool false)
(define-fun |memory_model::choice_rf_0_35_0_6_T_58| () Bool false)
(define-fun |memory_model::choice_rf_0_35_0_16_T_59| () Bool false)
(define-fun |memory_model::choice_rf_0_35_0_21_T_60| () Bool false)
(define-fun |memory_model::choice_rf_0_35_0_26_T_61| () Bool false)
(define-fun |memory_model::choice_rf_0_35_0_31_T_62| () Bool false)
(define-fun |memory_model::choice_rf_0_40_0_6_T_63| () Bool false)
(define-fun |memory_model::choice_rf_0_40_0_16_T_64| () Bool false)
(define-fun |memory_model::choice_rf_0_40_0_21_T_65| () Bool false)
(define-fun |memory_model::choice_rf_0_40_0_26_T_66| () Bool false)
(define-fun |memory_model::choice_rf_0_40_0_31_T_67| () Bool false)
(define-fun |memory_model::choice_rf_0_40_0_36_T_68| () Bool false)
(define-fun |memory_model::choice_rf_0_45_0_6_T_69| () Bool false)
(define-fun |memory_model::choice_rf_0_45_0_16_T_70| () Bool false)
(define-fun |memory_model::choice_rf_0_45_0_21_T_71| () Bool false)
(define-fun |memory_model::choice_rf_0_45_0_26_T_72| () Bool false)
(define-fun |memory_model::choice_rf_0_45_0_31_T_73| () Bool false)
(define-fun |memory_model::choice_rf_0_45_0_36_T_74| () Bool false)
(define-fun |memory_model::choice_rf_0_45_0_41_T_75| () Bool false)
(define-fun |x#3| () (_ BitVec 32) #b00000000000000000000000000000001)
(define-fun |memory_model::choice_rf_1_0_0_10_F_76| () Bool false)
(define-fun |x#1$wclk$8| () (_ BitVec 7) #b0011001)
(define-fun |x#3$rclk$8| () (_ BitVec 7) #b1110111)
(define-fun |memory_model::choice_rf_1_0_0_14_F_77| () Bool false)
(define-fun |x#2$wclk$8| () (_ BitVec 7) #b0011101)
(define-fun |memory_model::choice_rf_1_0_2_1_F_78| () Bool true)
(define-fun |x#6$wclk$8| () (_ BitVec 7) #b1110110)
(define-fun |memory_model::choice_rf_1_0_3_1_F_79| () Bool false)
(define-fun |x#8$wclk$8| () (_ BitVec 7) #b1110010)
(define-fun |memory_model::choice_rf_1_0_4_1_F_80| () Bool false)
(define-fun |x#10$wclk$8| () (_ BitVec 7) #b1110001)
(define-fun |memory_model::choice_rf_1_0_5_1_F_81| () Bool false)
(define-fun |x#12$wclk$8| () (_ BitVec 7) #b1110000)
(define-fun |memory_model::choice_rf_1_0_6_1_F_82| () Bool false)
(define-fun |x#14$wclk$8| () (_ BitVec 7) #b1101100)
(define-fun |memory_model::choice_rf_1_0_7_1_F_83| () Bool false)
(define-fun |x#16$wclk$8| () (_ BitVec 7) #b1101011)
(define-fun |memory_model::choice_rf_1_2_0_10_F_84| () Bool false)
(define-fun |x#4$rclk$8| () (_ BitVec 7) #b1111010)
(define-fun |memory_model::choice_rf_1_2_0_14_F_85| () Bool false)
(define-fun |memory_model::choice_rf_1_2_2_1_F_86| () Bool true)
(define-fun |memory_model::choice_rf_1_2_3_1_F_87| () Bool false)
(define-fun |memory_model::choice_rf_1_2_4_1_F_88| () Bool false)
(define-fun |memory_model::choice_rf_1_2_5_1_F_89| () Bool false)
(define-fun |memory_model::choice_rf_1_2_6_1_F_90| () Bool false)
(define-fun |memory_model::choice_rf_1_2_7_1_F_91| () Bool false)
(define-fun |memory_model::choice_rf_2_0_0_10_F_92| () Bool false)
(define-fun |x#5$rclk$8| () (_ BitVec 7) #b1100101)
(define-fun |memory_model::choice_rf_2_0_0_14_F_93| () Bool true)
(define-fun |memory_model::choice_rf_2_0_3_1_F_94| () Bool false)
(define-fun |memory_model::choice_rf_2_0_4_1_F_95| () Bool false)
(define-fun |memory_model::choice_rf_2_0_5_1_F_96| () Bool false)
(define-fun |memory_model::choice_rf_2_0_6_1_F_97| () Bool false)
(define-fun |memory_model::choice_rf_2_0_7_1_F_98| () Bool false)
(define-fun |memory_model::choice_rf_3_0_0_10_F_99| () Bool false)
(define-fun |x#7$rclk$8| () (_ BitVec 7) #b1100000)
(define-fun |memory_model::choice_rf_3_0_0_14_F_100| () Bool false)
(define-fun |memory_model::choice_rf_3_0_2_1_F_101| () Bool false)
(define-fun |memory_model::choice_rf_3_0_4_1_F_102| () Bool false)
(define-fun |memory_model::choice_rf_3_0_5_1_F_103| () Bool false)
(define-fun |memory_model::choice_rf_3_0_6_1_F_104| () Bool false)
(define-fun |memory_model::choice_rf_3_0_7_1_F_105| () Bool false)
(define-fun |memory_model::choice_rf_4_0_0_10_F_106| () Bool false)
(define-fun |x#9$rclk$8| () (_ BitVec 7) #b1100001)
(define-fun |memory_model::choice_rf_4_0_0_14_F_107| () Bool false)
(define-fun |memory_model::choice_rf_4_0_2_1_F_108| () Bool false)
(define-fun |memory_model::choice_rf_4_0_3_1_F_109| () Bool false)
(define-fun |memory_model::choice_rf_4_0_5_1_F_110| () Bool false)
(define-fun |memory_model::choice_rf_4_0_6_1_F_111| () Bool false)
(define-fun |memory_model::choice_rf_4_0_7_1_F_112| () Bool false)
(define-fun |memory_model::choice_rf_5_0_0_10_F_113| () Bool false)
(define-fun |x#11$rclk$8| () (_ BitVec 7) #b1011001)
(define-fun |memory_model::choice_rf_5_0_0_14_F_114| () Bool false)
(define-fun |memory_model::choice_rf_5_0_2_1_F_115| () Bool false)
(define-fun |memory_model::choice_rf_5_0_3_1_F_116| () Bool false)
(define-fun |memory_model::choice_rf_5_0_4_1_F_117| () Bool false)
(define-fun |memory_model::choice_rf_5_0_6_1_F_118| () Bool false)
(define-fun |memory_model::choice_rf_5_0_7_1_F_119| () Bool false)
(define-fun |memory_model::choice_rf_6_0_0_10_F_120| () Bool false)
(define-fun |x#13$rclk$8| () (_ BitVec 7) #b1101010)
(define-fun |memory_model::choice_rf_6_0_0_14_F_121| () Bool false)
(define-fun |memory_model::choice_rf_6_0_2_1_F_122| () Bool false)
(define-fun |memory_model::choice_rf_6_0_3_1_F_123| () Bool false)
(define-fun |memory_model::choice_rf_6_0_4_1_F_124| () Bool false)
(define-fun |memory_model::choice_rf_6_0_5_1_F_125| () Bool false)
(define-fun |memory_model::choice_rf_6_0_7_1_F_126| () Bool false)
(define-fun |memory_model::choice_rf_7_0_0_10_F_127| () Bool false)
(define-fun |x#15$rclk$8| () (_ BitVec 7) #b1101010)
(define-fun |memory_model::choice_rf_7_0_0_14_F_128| () Bool false)
(define-fun |memory_model::choice_rf_7_0_2_1_F_129| () Bool false)
(define-fun |memory_model::choice_rf_7_0_3_1_F_130| () Bool false)
(define-fun |memory_model::choice_rf_7_0_4_1_F_131| () Bool false)
(define-fun |memory_model::choice_rf_7_0_5_1_F_132| () Bool false)
(define-fun |memory_model::choice_rf_7_0_6_1_F_133| () Bool false)
(define-fun |memory_model::choice_rf_0_19_0_9_F_134| () Bool false)
(define-fun |memory_model::choice_rf_0_19_0_15_F_135| () Bool true)
(define-fun |memory_model::choice_rf_0_24_0_9_F_136| () Bool false)
(define-fun |memory_model::choice_rf_0_24_0_15_F_137| () Bool true)
(define-fun |memory_model::choice_rf_0_29_0_9_F_138| () Bool false)
(define-fun |memory_model::choice_rf_0_29_0_15_F_139| () Bool false)
(define-fun |memory_model::choice_rf_0_34_0_9_F_140| () Bool false)
(define-fun |memory_model::choice_rf_0_34_0_15_F_141| () Bool false)
(define-fun |memory_model::choice_rf_0_39_0_9_F_142| () Bool false)
(define-fun |memory_model::choice_rf_0_39_0_15_F_143| () Bool false)
(define-fun |memory_model::choice_rf_0_44_0_9_F_144| () Bool false)
(define-fun |memory_model::choice_rf_0_44_0_15_F_145| () Bool false)
(define-fun |n#9| () (_ BitVec 32) #b00000000000000000000000000000001)
(define-fun |memory_model::choice_rf_1_1_0_9_F_146| () Bool false)
(define-fun |n#1$wclk$8| () (_ BitVec 7) #b0010000)
(define-fun |n#9$rclk$8| () (_ BitVec 7) #b1111001)
(define-fun |memory_model::choice_rf_1_1_0_15_F_147| () Bool true)
(define-fun |n#2$wclk$8| () (_ BitVec 7) #b0100000)
(define-fun |memory_model::choice_rf_1_3_0_9_F_148| () Bool false)
(define-fun |n#10$rclk$8| () (_ BitVec 7) #b1111011)
(define-fun |memory_model::choice_rf_1_3_0_15_F_149| () Bool true)
(define-fun |memory_model::choice_ws-ext_0_8_1_5_T_150| () Bool true)
(define-fun |memory_model::choice_ws-ext_0_8_2_3_T_151| () Bool true)
(define-fun |memory_model::choice_ws-ext_0_8_3_3_T_152| () Bool true)
(define-fun |memory_model::choice_ws-ext_0_8_4_3_T_153| () Bool true)
(define-fun |memory_model::choice_ws-ext_0_8_5_3_T_154| () Bool true)
(define-fun |memory_model::choice_ws-ext_0_8_6_3_T_155| () Bool true)
(define-fun |memory_model::choice_ws-ext_0_8_7_3_T_156| () Bool true)
(define-fun |memory_model::choice_ws-ext_1_5_2_3_T_157| () Bool false)
(define-fun |memory_model::choice_ws-ext_1_5_3_3_T_158| () Bool false)
(define-fun |memory_model::choice_ws-ext_1_5_4_3_T_159| () Bool false)
(define-fun |memory_model::choice_ws-ext_1_5_5_3_T_160| () Bool false)
(define-fun |memory_model::choice_ws-ext_1_5_6_3_T_161| () Bool false)
(define-fun |memory_model::choice_ws-ext_1_5_7_3_T_162| () Bool false)
(define-fun |memory_model::choice_ws-ext_2_3_3_3_T_163| () Bool false)
(define-fun |memory_model::choice_ws-ext_2_3_4_3_T_164| () Bool false)
(define-fun |memory_model::choice_ws-ext_2_3_5_3_T_165| () Bool false)
(define-fun |memory_model::choice_ws-ext_2_3_6_3_T_166| () Bool false)
(define-fun |memory_model::choice_ws-ext_2_3_7_3_T_167| () Bool false)
(define-fun |memory_model::choice_ws-ext_3_3_4_3_T_168| () Bool false)
(define-fun |memory_model::choice_ws-ext_3_3_5_3_T_169| () Bool false)
(define-fun |memory_model::choice_ws-ext_3_3_6_3_T_170| () Bool false)
(define-fun |memory_model::choice_ws-ext_3_3_7_3_T_171| () Bool false)
(define-fun |memory_model::choice_ws-ext_4_3_5_3_T_172| () Bool false)
(define-fun |memory_model::choice_ws-ext_4_3_6_3_T_173| () Bool false)
(define-fun |memory_model::choice_ws-ext_4_3_7_3_T_174| () Bool false)
(define-fun |memory_model::choice_ws-ext_5_3_6_3_T_175| () Bool false)
(define-fun |memory_model::choice_ws-ext_5_3_7_3_T_176| () Bool false)
(define-fun |memory_model::choice_ws-ext_6_3_7_3_T_177| () Bool false)
(define-fun |memory_model::choice_ws-ext_0_10_2_1_F_178| () Bool true)
(define-fun |memory_model::choice_ws-ext_0_10_3_1_F_179| () Bool true)
(define-fun |memory_model::choice_ws-ext_0_10_4_1_F_180| () Bool true)
(define-fun |memory_model::choice_ws-ext_0_10_5_1_F_181| () Bool true)
(define-fun |memory_model::choice_ws-ext_0_10_6_1_F_182| () Bool true)
(define-fun |memory_model::choice_ws-ext_0_10_7_1_F_183| () Bool true)
(define-fun |memory_model::choice_ws-ext_0_14_2_1_F_184| () Bool true)
(define-fun |memory_model::choice_ws-ext_0_14_3_1_F_185| () Bool true)
(define-fun |memory_model::choice_ws-ext_0_14_4_1_F_186| () Bool true)
(define-fun |memory_model::choice_ws-ext_0_14_5_1_F_187| () Bool true)
(define-fun |memory_model::choice_ws-ext_0_14_6_1_F_188| () Bool true)
(define-fun |memory_model::choice_ws-ext_0_14_7_1_F_189| () Bool true)
(define-fun |memory_model::choice_ws-ext_2_1_3_1_F_190| () Bool false)
(define-fun |memory_model::choice_ws-ext_2_1_4_1_F_191| () Bool false)
(define-fun |memory_model::choice_ws-ext_2_1_5_1_F_192| () Bool false)
(define-fun |memory_model::choice_ws-ext_2_1_6_1_F_193| () Bool false)
(define-fun |memory_model::choice_ws-ext_2_1_7_1_F_194| () Bool false)
(define-fun |memory_model::choice_ws-ext_3_1_4_1_F_195| () Bool false)
(define-fun |memory_model::choice_ws-ext_3_1_5_1_F_196| () Bool false)
(define-fun |memory_model::choice_ws-ext_3_1_6_1_F_197| () Bool false)
(define-fun |memory_model::choice_ws-ext_3_1_7_1_F_198| () Bool false)
(define-fun |memory_model::choice_ws-ext_4_1_5_1_F_199| () Bool false)
(define-fun |memory_model::choice_ws-ext_4_1_6_1_F_200| () Bool false)
(define-fun |memory_model::choice_ws-ext_4_1_7_1_F_201| () Bool false)
(define-fun |memory_model::choice_ws-ext_5_1_6_1_F_202| () Bool false)
(define-fun |memory_model::choice_ws-ext_5_1_7_1_F_203| () Bool false)
(define-fun |memory_model::choice_ws-ext_6_1_7_1_F_204| () Bool false)
(define-fun t1$18$spwnclk$8 () (_ BitVec 7) #b0100101)
(define-fun t1$23$spwnclk$8 () (_ BitVec 7) #b0111110)
(define-fun t1$28$spwnclk$8 () (_ BitVec 7) #b1000110)
(define-fun t1$33$spwnclk$8 () (_ BitVec 7) #b1001011)
(define-fun t1$38$spwnclk$8 () (_ BitVec 7) #b1001111)
(define-fun t1$43$spwnclk$8 () (_ BitVec 7) #b1100101)
(define-fun t1$48$spwnclk$8 () (_ BitVec 7) #b1101001)
(define-fun |__CPROVER_dead_object#1$wclk$8| () (_ BitVec 7) #b0000000)
(define-fun |__CPROVER_deallocated#1$wclk$8| () (_ BitVec 7) #b0000001)
(define-fun |__CPROVER_malloc_is_new_array#1$wclk$8| () (_ BitVec 7) #b0000010)
(define-fun |__CPROVER_malloc_object#1$wclk$8| () (_ BitVec 7) #b0000011)
(define-fun |__CPROVER_malloc_size#1$wclk$8| () (_ BitVec 7) #b0000100)
(define-fun |__CPROVER_memory_leak#1$wclk$8| () (_ BitVec 7) #b0000101)
(define-fun |__CPROVER_next_thread_id#1$wclk$8| () (_ BitVec 7) #b0000110)
(define-fun |__CPROVER_pipe_count#1$wclk$8| () (_ BitVec 7) #b0000111)
(define-fun |argv'#1$wclk$8| () (_ BitVec 7) #b0011010)
(define-fun |main::1::t1!0@1#1$wclk$8| () (_ BitVec 7) #b0011011)
(define-fun |main::1::t2!0@1#1$wclk$8| () (_ BitVec 7) #b0011100)
(define-fun |__CPROVER_next_thread_id#2$wclk$8| () (_ BitVec 7) #b0100010)
(define-fun |main::1::t1!0@1#2$wclk$8| () (_ BitVec 7) #b0100100)
(define-fun |n#3$rclk$8| () (_ BitVec 7) #b0100110)
(define-fun |__CPROVER_next_thread_id#3$rclk$8| () (_ BitVec 7) #b0100111)
(define-fun |__CPROVER_next_thread_id#7$wclk$8| () (_ BitVec 7) #b0100111)
(define-fun |main::1::t2!0@1#2$wclk$8| () (_ BitVec 7) #b0111100)
(define-fun |n#4$rclk$8| () (_ BitVec 7) #b0111111)
(define-fun |__CPROVER_next_thread_id#8$rclk$8| () (_ BitVec 7) #b1000100)
(define-fun |__CPROVER_next_thread_id#10$wclk$8| () (_ BitVec 7) #b1000100)
(define-fun |main::1::t2!0@1#3$wclk$8| () (_ BitVec 7) #b1000101)
(define-fun |n#5$rclk$8| () (_ BitVec 7) #b1001000)
(define-fun |__CPROVER_next_thread_id#11$rclk$8| () (_ BitVec 7) #b1001001)
(define-fun |__CPROVER_next_thread_id#13$wclk$8| () (_ BitVec 7) #b1001001)
(define-fun |main::1::t2!0@1#4$wclk$8| () (_ BitVec 7) #b1001010)
(define-fun |n#6$rclk$8| () (_ BitVec 7) #b1001100)
(define-fun |__CPROVER_next_thread_id#14$rclk$8| () (_ BitVec 7) #b1001101)
(define-fun |__CPROVER_next_thread_id#16$wclk$8| () (_ BitVec 7) #b1001101)
(define-fun |main::1::t2!0@1#5$wclk$8| () (_ BitVec 7) #b1001110)
(define-fun |n#7$rclk$8| () (_ BitVec 7) #b1100000)
(define-fun |__CPROVER_next_thread_id#17$rclk$8| () (_ BitVec 7) #b1100001)
(define-fun |__CPROVER_next_thread_id#19$wclk$8| () (_ BitVec 7) #b1100001)
(define-fun |main::1::t2!0@1#6$wclk$8| () (_ BitVec 7) #b1100100)
(define-fun |n#8$rclk$8| () (_ BitVec 7) #b1100110)
(define-fun |__CPROVER_next_thread_id#20$rclk$8| () (_ BitVec 7) #b1100111)
(define-fun |__CPROVER_next_thread_id#22$wclk$8| () (_ BitVec 7) #b1100111)
(define-fun |main::1::t2!0@1#7$wclk$8| () (_ BitVec 7) #b1101000)
)

real	0m0.292s
user	0m0.284s
sys	0m0.007s
State: AC Run_time: 0.29369401931762695